&INPUT
   fildyn = 'si.dyn',
   asr = 'crystal',
/
