&CONTROL
   calculation      = 'scf'
   outdir           = './tmp'
   prefix           = 'si_scf'
   pseudo_dir       = './'
/
&SYSTEM
   ibrav            = 0
   nat              = 2
   ntyp             = 1
   ecutwfc          = 30
   ecutrho          = 240
   occupations      = 'fixed'
/
&ELECTRONS
   conv_thr         = 1e-08
/
&IONS
/
&CELL
/
&FCP
/
&RISM
/
ATOMIC_SPECIES
Si 28.085 Si.pz-vbc.UPF

K_POINTS automatic
2 2 2  0 0 0

CELL_PARAMETERS angstrom
0.00000000000000 2.71500000000000 2.71500000000000
2.71500000000000 0.00000000000000 2.71500000000000
2.71500000000000 2.71500000000000 0.00000000000000

ATOMIC_POSITIONS angstrom
Si 0.0000000000 0.0000000000 0.0000000000  
Si 1.3575000000 1.3575000000 1.3575000000  

