&INPUTPH
   tr2_ph = 1.0e-12,
   prefix = 'si_scf',
   outdir = './tmp',
   amass(1) = 28.0855,
   epsil = .true.,
   trans = .true.,
   lraman = .true.,
   fildyn = 'si.dyn',
   ldisp = .false.
/
0.0 0.0 0.0
