&CONTROL
   verbosity        = 'low'
   tstress          = .true.
   tprnfor          = .true.
   outdir           = './tmp'
   prefix           = 'c_hg'
   pseudo_dir       = './'
/
&SYSTEM
   ibrav            = 0
   nat              = 9
   ntyp             = 2
   ecutwfc          = 65
   occupations      = 'smearing'
   degauss          = 0.01
   smearing         = 'gauss'
   assume_isolated  = '2D'
/
&ELECTRONS
   conv_thr         = 1e-10
/
&IONS
/
&CELL
/
&FCP
/
&RISM
/
ATOMIC_SPECIES
C 12.011 C.upf
Hg 200.592 Hg.upf

K_POINTS automatic
1 1 1  0 0 0

CELL_PARAMETERS angstrom
4.91200017930000 0.00000000000000 0.00000000000000
-2.45600065610000 4.25391661160000 0.00000000000000
0.00000000000000 0.00000000000000 0.00000000000000

ATOMIC_POSITIONS angstrom
C 0.0000000000 0.0000000000 7.5000000000  
C -1.2280003280 2.1269583060 7.5000000000  
C 2.4560000900 0.0000000000 7.5000000000  
C 1.2279997620 2.1269583060 7.5000000000  
C 1.2279998770 0.7089860600 7.5000000000  
C -0.0000003780 2.8359442390 7.5000000000  
C 3.6839999670 0.7089860600 7.5000000000  
C 2.4559997120 2.8359442390 7.5000000000  
Hg 2.4559997120 2.8359442390 9.5000000000  

