echo

start molecule

title "CO2 | Equilibrium Geometry | B3LYP/6-31G(d,p)"
charge 0

print low

geometry units angstroms print xyz autosym
C     -4.243288   -3.698893    2.201210
O     -3.470945   -3.016444    1.593952
O     -5.015851   -4.381509    2.808045
end

basis
  * library 6-31G**
end

dft
  xc b3lyp
  mult 1
end

task dft optimize
task dft freq
